Set parameter TokenServer to value "hpc-licenses.hpcc.usc.edu"
Set parameter TimeLimit to value 3600
Gurobi Optimizer version 9.5.1 build v9.5.1rc2 (linux64)
Thread count: 20 physical cores, 20 logical processors, using up to 20 threads
Optimize a model with 6007 rows, 4529 columns and 24534 nonzeros
Model fingerprint: 0xb8018210
Variable types: 4506 continuous, 23 integer (23 binary)
Coefficient statistics:
  Matrix range     [1e+00, 1e+00]
  Objective range  [1e-03, 3e+00]
  Bounds range     [1e+00, 1e+00]
  RHS range        [1e+00, 4e+01]
Presolve removed 1520 rows and 1515 columns
Presolve time: 0.05s
Presolved: 4487 rows, 3014 columns, 21975 nonzeros
Variable types: 2994 continuous, 20 integer (20 binary)
Found heuristic solution: objective 216.1450498

Root relaxation: objective 2.249433e+02, 2331 iterations, 0.08 seconds (0.13 work units)

    Nodes    |    Current Node    |     Objective Bounds      |     Work
 Expl Unexpl |  Obj  Depth IntInf | Incumbent    BestBd   Gap | It/Node Time

     0     0  224.94332    0    3  216.14505  224.94332  4.07%     -    0s
     0     0  224.74270    0    3  216.14505  224.74270  3.98%     -    0s
     0     0  224.41416    0    3  216.14505  224.41416  3.83%     -    0s
     0     0  223.86851    0    4  216.14505  223.86851  3.57%     -    0s
     0     0  223.86851    0    4  216.14505  223.86851  3.57%     -    0s
H    0     0                     216.3946821  223.79950  3.42%     -    0s
H    0     0                     222.1267763  223.79950  0.75%     -    0s
     0     0  223.76170    0    4  222.12678  223.76170  0.74%     -    0s
     0     0  223.64242    0    4  222.12678  223.64242  0.68%     -    0s
     0     0  223.63153    0    4  222.12678  223.63153  0.68%     -    0s
     0     0  223.63153    0    3  222.12678  223.63153  0.68%     -    1s
     0     0  222.60191    0    3  222.12678  222.60191  0.21%     -    2s
     0     0  222.12678    0    3  222.12678  222.12678  0.00%     -    2s

Cutting planes:
  Gomory: 2
  Implied bound: 11
  MIR: 215
  Flow cover: 418
  RLT: 7
  Relax-and-lift: 2

Explored 1 nodes (4546 simplex iterations) in 2.67 seconds (0.97 work units)
Thread count was 20 (of 20 available processors)

Solution count 3: 222.127 216.395 216.145 

Optimal solution found (tolerance 1.00e-04)
Best objective 2.221267762802e+02, best bound 2.221267762802e+02, gap 0.0000%



#########node  1
V1.9
#########node  2
0.4166666666666667,0.5833333333333333
#########node  3
1.0,0.0


Total Solving Time 3.045827627182007
obj value 222.1267762801557
Policy Regret train (Sum) 10.475852471410601
Best Treatment Found train (%) 51.800000000000004
treatment classification acc train (%) 58.8
Policy Regret test (Sum) 171.07608036179815
Best Treatment Found test (%) 53.010000000000005
treatment classification acc test (%) 57.65
